<number of tasks>
20

<cycle time>
1000

<order strength>
0,5


<task times>
1 162
2 571
3 51
4 438
5 417
6 149
7 125
8 233
9 432
10 116
11 450
12 101
13 48
14 248
15 176
16 180
17 153
18 476
19 494
20 257

<precedence relations>
1,2
1,3
1,4
1,5
2,6
2,8
3,6
3,11
3,14
3,16
4,12
4,13
5,7
5,9
6,13
7,13
8,12
9,10
9,11
10,13
11,13
12,14
12,15
12,16
13,17
13,18
13,19
13,20

<end>
